# Solution for model MaxAlag
# Objective value = 352
SuperAlag(1,1) 0
SuperAlag(1,2) 0
SuperAlag(1,3) 0
SuperAlag(1,4) 0
SuperAlag(1,5) 0
SuperAlag(2,1) 32
SuperAlag(2,2) 0
SuperAlag(2,3) 0
SuperAlag(2,4) 0
SuperAlag(2,5) 0
SuperAlag(3,1) 0
SuperAlag(3,2) 0
SuperAlag(3,3) 0
SuperAlag(3,4) 0
SuperAlag(3,5) 0
SuperAlag(4,1) 0
SuperAlag(4,2) 0
SuperAlag(4,3) 0
SuperAlag(4,4) 0
SuperAlag(4,5) 0
SuperAlag(5,1) 0
SuperAlag(5,2) 0
SuperAlag(5,3) 0
SuperAlag(5,4) 0
SuperAlag(5,5) 0
SuperAlag(6,1) 0
SuperAlag(6,2) 0
SuperAlag(6,3) 0
SuperAlag(6,4) 0
SuperAlag(6,5) 0
SuperAlag(7,1) 0
SuperAlag(7,2) 0
SuperAlag(7,3) 0
SuperAlag(7,4) 0
SuperAlag(7,5) 0
SuperAlag(8,1) 0
SuperAlag(8,2) 0
SuperAlag(8,3) 0
SuperAlag(8,4) 0
SuperAlag(8,5) 0
TheMaxAlag 32
x(1,1,1) 0
x(2,1,1) 0
x(3,1,1) 0
x(4,1,1) 0
x(5,1,1) 0
x(6,1,1) 0
x(7,1,1) 0
x(8,1,1) 0
x(9,1,1) 0
x(10,1,1) 0
x(11,1,1) 0
x(12,1,1) 0
x(13,1,1) 0
x(15,1,1) 0
x(16,1,1) 0
x(17,1,1) 0
x(18,1,1) 0
x(19,1,1) 0
x(20,1,1) 0
x(21,1,1) 0
x(22,1,1) 0
x(23,1,1) 0
x(24,1,1) 0
x(25,1,1) 0
x(26,1,1) 0
x(27,1,1) 0
x(28,1,1) 0
x(29,1,1) 0
x(30,1,1) 0
x(31,1,1) 0
x(32,1,1) 0
x(33,1,1) 0
x(34,1,1) 0
x(35,1,1) 0
x(36,1,1) 0
x(37,1,1) 0
x(38,1,1) 0
x(39,1,1) 0
x(40,1,1) 0
x(41,1,1) 0
x(42,1,1) 0
x(43,1,1) 0
x(44,1,1) 0
x(45,1,1) 0
x(46,1,1) 0
x(47,1,1) 0
x(48,1,1) 0
x(49,1,1) 1
x(50,1,1) 0
x(51,1,1) 1
x(52,1,1) 0
x(53,1,1) 0
x(54,1,1) 0
x(55,1,1) 0
x(56,1,1) 0
x(57,1,1) 0
x(58,1,1) 0
x(59,1,1) 0
x(60,1,1) 0
x(1,1,2) 0
x(2,1,2) 0
x(3,1,2) 0
x(4,1,2) 0
x(5,1,2) 0
x(6,1,2) 0
x(7,1,2) 0
x(8,1,2) 1
x(9,1,2) 0
x(10,1,2) 0
x(11,1,2) 0
x(12,1,2) 0
x(13,1,2) 0
x(15,1,2) 0
x(16,1,2) 0
x(17,1,2) 0
x(18,1,2) 0
x(19,1,2) 0
x(20,1,2) 0
x(21,1,2) 0
x(22,1,2) 0
x(23,1,2) 0
x(24,1,2) 1
x(25,1,2) 1
x(26,1,2) 0
x(27,1,2) 0
x(28,1,2) 1
x(29,1,2) 0
x(30,1,2) 0
x(31,1,2) 0
x(32,1,2) 0
x(33,1,2) 0
x(34,1,2) 0
x(35,1,2) 0
x(36,1,2) 0
x(37,1,2) 0
x(38,1,2) 0
x(39,1,2) 1
x(40,1,2) 0
x(41,1,2) 0
x(42,1,2) 0
x(43,1,2) 0
x(44,1,2) 0
x(45,1,2) 0
x(46,1,2) 0
x(47,1,2) 0
x(48,1,2) 0
x(49,1,2) 0
x(50,1,2) 0
x(51,1,2) 0
x(52,1,2) 0
x(53,1,2) 0
x(54,1,2) 0
x(55,1,2) 0
x(56,1,2) 0
x(57,1,2) 0
x(58,1,2) 0
x(59,1,2) 0
x(60,1,2) 0
x(1,1,3) 0
x(2,1,3) 0
x(3,1,3) 0
x(4,1,3) 0
x(5,1,3) 0
x(6,1,3) 0
x(7,1,3) 0
x(8,1,3) 0
x(9,1,3) 0
x(10,1,3) 0
x(11,1,3) 0
x(12,1,3) 0
x(13,1,3) 0
x(15,1,3) 0
x(16,1,3) 0
x(17,1,3) 0
x(18,1,3) 0
x(19,1,3) 0
x(20,1,3) 0
x(21,1,3) 0
x(22,1,3) 0
x(23,1,3) 0
x(24,1,3) 0
x(25,1,3) 0
x(26,1,3) 0
x(27,1,3) 0
x(28,1,3) 0
x(29,1,3) 0
x(30,1,3) 0
x(31,1,3) 0
x(32,1,3) 0
x(33,1,3) 0
x(34,1,3) 0
x(35,1,3) 0
x(36,1,3) 0
x(37,1,3) 0
x(38,1,3) 0
x(39,1,3) 0
x(40,1,3) 0
x(41,1,3) 0
x(42,1,3) 0
x(43,1,3) 0
x(44,1,3) 0
x(45,1,3) 0
x(46,1,3) 0
x(47,1,3) 0
x(48,1,3) 0
x(49,1,3) 0
x(50,1,3) 0
x(51,1,3) 0
x(52,1,3) 0
x(53,1,3) 0
x(54,1,3) 0
x(55,1,3) 1
x(56,1,3) 0
x(57,1,3) 0
x(58,1,3) 0
x(59,1,3) 0
x(60,1,3) 0
x(1,1,4) 0
x(2,1,4) 0
x(3,1,4) 0
x(4,1,4) 0
x(5,1,4) 0
x(6,1,4) 0
x(7,1,4) 0
x(8,1,4) 0
x(9,1,4) 0
x(10,1,4) 0
x(11,1,4) 0
x(12,1,4) 1
x(13,1,4) 0
x(15,1,4) 0
x(16,1,4) 0
x(17,1,4) 0
x(18,1,4) 0
x(19,1,4) 0
x(20,1,4) 0
x(21,1,4) 0
x(22,1,4) 0
x(23,1,4) 0
x(24,1,4) 0
x(25,1,4) 0
x(26,1,4) 1
x(27,1,4) 0
x(28,1,4) 0
x(29,1,4) 0
x(30,1,4) 0
x(31,1,4) 0
x(32,1,4) 0
x(33,1,4) 0
x(34,1,4) 0
x(35,1,4) 0
x(36,1,4) 0
x(37,1,4) 0
x(38,1,4) 0
x(39,1,4) 0
x(40,1,4) 0
x(41,1,4) 0
x(42,1,4) 0
x(43,1,4) 0
x(44,1,4) 0
x(45,1,4) 0
x(46,1,4) 0
x(47,1,4) 0
x(48,1,4) 0
x(49,1,4) 0
x(50,1,4) 0
x(51,1,4) 0
x(52,1,4) 0
x(53,1,4) 0
x(54,1,4) 0
x(55,1,4) 0
x(56,1,4) 0
x(57,1,4) 0
x(58,1,4) 0
x(59,1,4) 0
x(60,1,4) 0
x(1,1,5) 0
x(2,1,5) 0
x(3,1,5) 1
x(4,1,5) 0
x(5,1,5) 0
x(6,1,5) 0
x(7,1,5) 0
x(8,1,5) 0
x(9,1,5) 0
x(10,1,5) 1
x(11,1,5) 0
x(12,1,5) 0
x(13,1,5) 0
x(15,1,5) 0
x(16,1,5) 0
x(17,1,5) 0
x(18,1,5) 0
x(19,1,5) 0
x(20,1,5) 1
x(21,1,5) 0
x(22,1,5) 0
x(23,1,5) 0
x(24,1,5) 0
x(25,1,5) 0
x(26,1,5) 0
x(27,1,5) 0
x(28,1,5) 0
x(29,1,5) 0
x(30,1,5) 0
x(31,1,5) 0
x(32,1,5) 0
x(33,1,5) 0
x(34,1,5) 0
x(35,1,5) 0
x(36,1,5) 0
x(37,1,5) 0
x(38,1,5) 0
x(39,1,5) 0
x(40,1,5) 0
x(41,1,5) 0
x(42,1,5) 0
x(43,1,5) 0
x(44,1,5) 0
x(45,1,5) 0
x(46,1,5) 0
x(47,1,5) 0
x(48,1,5) 0
x(49,1,5) 0
x(50,1,5) 0
x(51,1,5) 0
x(52,1,5) 0
x(53,1,5) 0
x(54,1,5) 0
x(55,1,5) 0
x(56,1,5) 0
x(57,1,5) 0
x(58,1,5) 0
x(59,1,5) 0
x(60,1,5) 0
x(1,2,1) 0
x(2,2,1) 0
x(3,2,1) 0
x(4,2,1) 0
x(5,2,1) 0
x(6,2,1) 0
x(7,2,1) 0
x(8,2,1) 0
x(9,2,1) 0
x(10,2,1) 0
x(11,2,1) 0
x(12,2,1) 0
x(13,2,1) 0
x(15,2,1) 0
x(16,2,1) 0
x(17,2,1) 0
x(18,2,1) 0
x(19,2,1) 1
x(20,2,1) 0
x(21,2,1) 0
x(22,2,1) 0
x(23,2,1) 0
x(24,2,1) 0
x(25,2,1) 0
x(26,2,1) 0
x(27,2,1) 0
x(28,2,1) 0
x(29,2,1) 0
x(30,2,1) 0
x(31,2,1) 0
x(32,2,1) 0
x(33,2,1) 0
x(34,2,1) 0
x(35,2,1) 0
x(36,2,1) 0
x(37,2,1) 0
x(38,2,1) 0
x(39,2,1) 0
x(40,2,1) 0
x(41,2,1) 0
x(42,2,1) 0
x(43,2,1) 0
x(44,2,1) 0
x(45,2,1) 0
x(46,2,1) 0
x(47,2,1) 0
x(48,2,1) 0
x(49,2,1) 0
x(50,2,1) 0
x(51,2,1) 0
x(52,2,1) 0
x(53,2,1) 0
x(54,2,1) 0
x(55,2,1) 0
x(56,2,1) 0
x(57,2,1) 0
x(58,2,1) 0
x(59,2,1) 0
x(60,2,1) 0
x(1,2,2) 0
x(2,2,2) 0
x(3,2,2) 0
x(4,2,2) 0
x(5,2,2) 0
x(6,2,2) 0
x(7,2,2) 0
x(8,2,2) 0
x(9,2,2) 0
x(10,2,2) 0
x(11,2,2) 0
x(12,2,2) 0
x(13,2,2) 0
x(15,2,2) 0
x(16,2,2) 0
x(17,2,2) 0
x(18,2,2) 0
x(19,2,2) 0
x(20,2,2) 0
x(21,2,2) 1
x(22,2,2) 0
x(23,2,2) 0
x(24,2,2) 0
x(25,2,2) 0
x(26,2,2) 0
x(27,2,2) 0
x(28,2,2) 0
x(29,2,2) 0
x(30,2,2) 0
x(31,2,2) 0
x(32,2,2) 0
x(33,2,2) 0
x(34,2,2) 0
x(35,2,2) 0
x(36,2,2) 0
x(37,2,2) 0
x(38,2,2) 0
x(39,2,2) 0
x(40,2,2) 0
x(41,2,2) 0
x(42,2,2) 0
x(43,2,2) 0
x(44,2,2) 0
x(45,2,2) 0
x(46,2,2) 0
x(47,2,2) 0
x(48,2,2) 0
x(49,2,2) 0
x(50,2,2) 0
x(51,2,2) 0
x(52,2,2) 0
x(53,2,2) 0
x(54,2,2) 0
x(55,2,2) 0
x(56,2,2) 0
x(57,2,2) 0
x(58,2,2) 0
x(59,2,2) 0
x(60,2,2) 0
x(1,2,3) 0
x(2,2,3) 0
x(3,2,3) 0
x(4,2,3) 0
x(5,2,3) 0
x(6,2,3) 0
x(7,2,3) 0
x(8,2,3) 0
x(9,2,3) 0
x(10,2,3) 0
x(11,2,3) 0
x(12,2,3) 0
x(13,2,3) 0
x(15,2,3) 0
x(16,2,3) 0
x(17,2,3) 0
x(18,2,3) 0
x(19,2,3) 0
x(20,2,3) 0
x(21,2,3) 0
x(22,2,3) 1
x(23,2,3) 1
x(24,2,3) 0
x(25,2,3) 0
x(26,2,3) 0
x(27,2,3) 0
x(28,2,3) 0
x(29,2,3) 0
x(30,2,3) 0
x(31,2,3) 0
x(32,2,3) 0
x(33,2,3) 0
x(34,2,3) 0
x(35,2,3) 0
x(36,2,3) 0
x(37,2,3) 0
x(38,2,3) 0
x(39,2,3) 0
x(40,2,3) 0
x(41,2,3) 0
x(42,2,3) 1
x(43,2,3) 0
x(44,2,3) 0
x(45,2,3) 0
x(46,2,3) 0
x(47,2,3) 0
x(48,2,3) 0
x(49,2,3) 0
x(50,2,3) 0
x(51,2,3) 0
x(52,2,3) 0
x(53,2,3) 0
x(54,2,3) 0
x(55,2,3) 0
x(56,2,3) 0
x(57,2,3) 0
x(58,2,3) 0
x(59,2,3) 0
x(60,2,3) 0
x(1,2,4) 0
x(2,2,4) 0
x(3,2,4) 0
x(4,2,4) 0
x(5,2,4) 0
x(6,2,4) 0
x(7,2,4) 0
x(8,2,4) 0
x(9,2,4) 0
x(10,2,4) 0
x(11,2,4) 0
x(12,2,4) 0
x(13,2,4) 0
x(15,2,4) 0
x(16,2,4) 0
x(17,2,4) 0
x(18,2,4) 0
x(19,2,4) 0
x(20,2,4) 0
x(21,2,4) 0
x(22,2,4) 0
x(23,2,4) 0
x(24,2,4) 0
x(25,2,4) 0
x(26,2,4) 0
x(27,2,4) 0
x(28,2,4) 0
x(29,2,4) 0
x(30,2,4) 0
x(31,2,4) 0
x(32,2,4) 0
x(33,2,4) 0
x(34,2,4) 0
x(35,2,4) 1
x(36,2,4) 0
x(37,2,4) 0
x(38,2,4) 0
x(39,2,4) 0
x(40,2,4) 0
x(41,2,4) 1
x(42,2,4) 0
x(43,2,4) 0
x(44,2,4) 0
x(45,2,4) 0
x(46,2,4) 0
x(47,2,4) 0
x(48,2,4) 0
x(49,2,4) 0
x(50,2,4) 0
x(51,2,4) 0
x(52,2,4) 0
x(53,2,4) 0
x(54,2,4) 0
x(55,2,4) 0
x(56,2,4) 0
x(57,2,4) 0
x(58,2,4) 0
x(59,2,4) 0
x(60,2,4) 0
x(1,2,5) 0
x(2,2,5) 0
x(3,2,5) 0
x(4,2,5) 0
x(5,2,5) 0
x(6,2,5) 0
x(7,2,5) 0
x(8,2,5) 0
x(9,2,5) 0
x(10,2,5) 0
x(11,2,5) 0
x(12,2,5) 0
x(13,2,5) 0
x(15,2,5) 0
x(16,2,5) 0
x(17,2,5) 0
x(18,2,5) 0
x(19,2,5) 0
x(20,2,5) 0
x(21,2,5) 0
x(22,2,5) 0
x(23,2,5) 0
x(24,2,5) 0
x(25,2,5) 0
x(26,2,5) 0
x(27,2,5) 0
x(28,2,5) 0
x(29,2,5) 0
x(30,2,5) 0
x(31,2,5) 0
x(32,2,5) 0
x(33,2,5) 0
x(34,2,5) 0
x(35,2,5) 0
x(36,2,5) 0
x(37,2,5) 0
x(38,2,5) 0
x(39,2,5) 0
x(40,2,5) 0
x(41,2,5) 0
x(42,2,5) 0
x(43,2,5) 0
x(44,2,5) 0
x(45,2,5) 0
x(46,2,5) 0
x(47,2,5) 0
x(48,2,5) 0
x(49,2,5) 0
x(50,2,5) 0
x(51,2,5) 0
x(52,2,5) 0
x(53,2,5) 0
x(54,2,5) 0
x(55,2,5) 0
x(56,2,5) 0
x(57,2,5) 0
x(58,2,5) 0
x(59,2,5) 0
x(60,2,5) 0
x(1,3,1) 0
x(2,3,1) 0
x(3,3,1) 0
x(4,3,1) 0
x(5,3,1) 0
x(6,3,1) 0
x(7,3,1) 0
x(8,3,1) 0
x(9,3,1) 0
x(10,3,1) 0
x(11,3,1) 0
x(12,3,1) 0
x(13,3,1) 0
x(15,3,1) 0
x(16,3,1) 0
x(17,3,1) 0
x(18,3,1) 0
x(19,3,1) 0
x(20,3,1) 0
x(21,3,1) 0
x(22,3,1) 0
x(23,3,1) 0
x(24,3,1) 0
x(25,3,1) 0
x(26,3,1) 0
x(27,3,1) 0
x(28,3,1) 0
x(29,3,1) 0
x(30,3,1) 0
x(31,3,1) 0
x(32,3,1) 0
x(33,3,1) 0
x(34,3,1) 0
x(35,3,1) 0
x(36,3,1) 0
x(37,3,1) 0
x(38,3,1) 0
x(39,3,1) 0
x(40,3,1) 0
x(41,3,1) 0
x(42,3,1) 0
x(43,3,1) 0
x(44,3,1) 1
x(45,3,1) 0
x(46,3,1) 0
x(47,3,1) 0
x(48,3,1) 0
x(49,3,1) 0
x(50,3,1) 0
x(51,3,1) 0
x(52,3,1) 0
x(53,3,1) 0
x(54,3,1) 0
x(55,3,1) 0
x(56,3,1) 0
x(57,3,1) 0
x(58,3,1) 0
x(59,3,1) 0
x(60,3,1) 0
x(1,3,2) 0
x(2,3,2) 1
x(3,3,2) 0
x(4,3,2) 0
x(5,3,2) 0
x(6,3,2) 0
x(7,3,2) 0
x(8,3,2) 0
x(9,3,2) 0
x(10,3,2) 0
x(11,3,2) 0
x(12,3,2) 0
x(13,3,2) 0
x(15,3,2) 0
x(16,3,2) 0
x(17,3,2) 0
x(18,3,2) 0
x(19,3,2) 0
x(20,3,2) 0
x(21,3,2) 0
x(22,3,2) 0
x(23,3,2) 0
x(24,3,2) 0
x(25,3,2) 0
x(26,3,2) 0
x(27,3,2) 0
x(28,3,2) 0
x(29,3,2) 0
x(30,3,2) 0
x(31,3,2) 0
x(32,3,2) 0
x(33,3,2) 0
x(34,3,2) 0
x(35,3,2) 0
x(36,3,2) 0
x(37,3,2) 0
x(38,3,2) 0
x(39,3,2) 0
x(40,3,2) 0
x(41,3,2) 0
x(42,3,2) 0
x(43,3,2) 0
x(44,3,2) 0
x(45,3,2) 1
x(46,3,2) 0
x(47,3,2) 0
x(48,3,2) 0
x(49,3,2) 0
x(50,3,2) 0
x(51,3,2) 0
x(52,3,2) 0
x(53,3,2) 0
x(54,3,2) 0
x(55,3,2) 0
x(56,3,2) 0
x(57,3,2) 0
x(58,3,2) 0
x(59,3,2) 0
x(60,3,2) 0
x(1,3,3) 0
x(2,3,3) 0
x(3,3,3) 0
x(4,3,3) 0
x(5,3,3) 0
x(6,3,3) 0
x(7,3,3) 0
x(8,3,3) 0
x(9,3,3) 0
x(10,3,3) 0
x(11,3,3) 0
x(12,3,3) 0
x(13,3,3) 0
x(15,3,3) 1
x(16,3,3) 0
x(17,3,3) 0
x(18,3,3) 0
x(19,3,3) 0
x(20,3,3) 0
x(21,3,3) 0
x(22,3,3) 0
x(23,3,3) 0
x(24,3,3) 0
x(25,3,3) 0
x(26,3,3) 0
x(27,3,3) 0
x(28,3,3) 0
x(29,3,3) 0
x(30,3,3) 0
x(31,3,3) 0
x(32,3,3) 0
x(33,3,3) 0
x(34,3,3) 0
x(35,3,3) 0
x(36,3,3) 0
x(37,3,3) 0
x(38,3,3) 0
x(39,3,3) 0
x(40,3,3) 0
x(41,3,3) 0
x(42,3,3) 0
x(43,3,3) 0
x(44,3,3) 0
x(45,3,3) 0
x(46,3,3) 1
x(47,3,3) 0
x(48,3,3) 0
x(49,3,3) 0
x(50,3,3) 0
x(51,3,3) 0
x(52,3,3) 0
x(53,3,3) 0
x(54,3,3) 0
x(55,3,3) 0
x(56,3,3) 0
x(57,3,3) 0
x(58,3,3) 0
x(59,3,3) 0
x(60,3,3) 0
x(1,3,4) 0
x(2,3,4) 0
x(3,3,4) 0
x(4,3,4) 0
x(5,3,4) 0
x(6,3,4) 0
x(7,3,4) 0
x(8,3,4) 0
x(9,3,4) 0
x(10,3,4) 0
x(11,3,4) 0
x(12,3,4) 0
x(13,3,4) 0
x(15,3,4) 0
x(16,3,4) 0
x(17,3,4) 0
x(18,3,4) 0
x(19,3,4) 0
x(20,3,4) 0
x(21,3,4) 0
x(22,3,4) 0
x(23,3,4) 0
x(24,3,4) 0
x(25,3,4) 0
x(26,3,4) 0
x(27,3,4) 0
x(28,3,4) 0
x(29,3,4) 0
x(30,3,4) 0
x(31,3,4) 0
x(32,3,4) 0
x(33,3,4) 0
x(34,3,4) 0
x(35,3,4) 0
x(36,3,4) 0
x(37,3,4) 0
x(38,3,4) 0
x(39,3,4) 0
x(40,3,4) 0
x(41,3,4) 0
x(42,3,4) 0
x(43,3,4) 0
x(44,3,4) 0
x(45,3,4) 0
x(46,3,4) 0
x(47,3,4) 0
x(48,3,4) 1
x(49,3,4) 0
x(50,3,4) 0
x(51,3,4) 0
x(52,3,4) 0
x(53,3,4) 0
x(54,3,4) 0
x(55,3,4) 0
x(56,3,4) 0
x(57,3,4) 0
x(58,3,4) 0
x(59,3,4) 0
x(60,3,4) 0
x(1,3,5) 0
x(2,3,5) 0
x(3,3,5) 0
x(4,3,5) 0
x(5,3,5) 0
x(6,3,5) 0
x(7,3,5) 0
x(8,3,5) 0
x(9,3,5) 0
x(10,3,5) 0
x(11,3,5) 1
x(12,3,5) 0
x(13,3,5) 0
x(15,3,5) 0
x(16,3,5) 0
x(17,3,5) 0
x(18,3,5) 0
x(19,3,5) 0
x(20,3,5) 0
x(21,3,5) 0
x(22,3,5) 0
x(23,3,5) 0
x(24,3,5) 0
x(25,3,5) 0
x(26,3,5) 0
x(27,3,5) 0
x(28,3,5) 0
x(29,3,5) 0
x(30,3,5) 0
x(31,3,5) 0
x(32,3,5) 0
x(33,3,5) 0
x(34,3,5) 0
x(35,3,5) 0
x(36,3,5) 0
x(37,3,5) 0
x(38,3,5) 0
x(39,3,5) 0
x(40,3,5) 0
x(41,3,5) 0
x(42,3,5) 0
x(43,3,5) 0
x(44,3,5) 0
x(45,3,5) 0
x(46,3,5) 0
x(47,3,5) 0
x(48,3,5) 0
x(49,3,5) 0
x(50,3,5) 0
x(51,3,5) 0
x(52,3,5) 0
x(53,3,5) 0
x(54,3,5) 1
x(55,3,5) 0
x(56,3,5) 0
x(57,3,5) 0
x(58,3,5) 0
x(59,3,5) 0
x(60,3,5) 0
x(1,4,1) 0
x(2,4,1) 0
x(3,4,1) 0
x(4,4,1) 0
x(5,4,1) 0
x(6,4,1) 1
x(7,4,1) 0
x(8,4,1) 0
x(9,4,1) 0
x(10,4,1) 0
x(11,4,1) 0
x(12,4,1) 0
x(13,4,1) 0
x(15,4,1) 0
x(16,4,1) 0
x(17,4,1) 0
x(18,4,1) 0
x(19,4,1) 0
x(20,4,1) 0
x(21,4,1) 0
x(22,4,1) 0
x(23,4,1) 0
x(24,4,1) 0
x(25,4,1) 0
x(26,4,1) 0
x(27,4,1) 0
x(28,4,1) 0
x(29,4,1) 0
x(30,4,1) 0
x(31,4,1) 0
x(32,4,1) 0
x(33,4,1) 0
x(34,4,1) 0
x(35,4,1) 0
x(36,4,1) 0
x(37,4,1) 0
x(38,4,1) 0
x(39,4,1) 0
x(40,4,1) 0
x(41,4,1) 0
x(42,4,1) 0
x(43,4,1) 0
x(44,4,1) 0
x(45,4,1) 0
x(46,4,1) 0
x(47,4,1) 0
x(48,4,1) 0
x(49,4,1) 0
x(50,4,1) 0
x(51,4,1) 0
x(52,4,1) 0
x(53,4,1) 0
x(54,4,1) 0
x(55,4,1) 0
x(56,4,1) 0
x(57,4,1) 0
x(58,4,1) 1
x(59,4,1) 1
x(60,4,1) 0
x(1,4,2) 0
x(2,4,2) 0
x(3,4,2) 0
x(4,4,2) 0
x(5,4,2) 0
x(6,4,2) 0
x(7,4,2) 0
x(8,4,2) 0
x(9,4,2) 0
x(10,4,2) 0
x(11,4,2) 0
x(12,4,2) 0
x(13,4,2) 0
x(15,4,2) 0
x(16,4,2) 0
x(17,4,2) 0
x(18,4,2) 0
x(19,4,2) 0
x(20,4,2) 0
x(21,4,2) 0
x(22,4,2) 0
x(23,4,2) 0
x(24,4,2) 0
x(25,4,2) 0
x(26,4,2) 0
x(27,4,2) 0
x(28,4,2) 0
x(29,4,2) 0
x(30,4,2) 1
x(31,4,2) 0
x(32,4,2) 0
x(33,4,2) 0
x(34,4,2) 0
x(35,4,2) 0
x(36,4,2) 0
x(37,4,2) 0
x(38,4,2) 0
x(39,4,2) 0
x(40,4,2) 0
x(41,4,2) 0
x(42,4,2) 0
x(43,4,2) 0
x(44,4,2) 0
x(45,4,2) 0
x(46,4,2) 0
x(47,4,2) 0
x(48,4,2) 0
x(49,4,2) 0
x(50,4,2) 0
x(51,4,2) 0
x(52,4,2) 0
x(53,4,2) 0
x(54,4,2) 0
x(55,4,2) 0
x(56,4,2) 1
x(57,4,2) 1
x(58,4,2) 0
x(59,4,2) 0
x(60,4,2) 0
x(1,4,3) 0
x(2,4,3) 0
x(3,4,3) 0
x(4,4,3) 0
x(5,4,3) 0
x(6,4,3) 0
x(7,4,3) 0
x(8,4,3) 0
x(9,4,3) 0
x(10,4,3) 0
x(11,4,3) 0
x(12,4,3) 0
x(13,4,3) 0
x(15,4,3) 0
x(16,4,3) 0
x(17,4,3) 0
x(18,4,3) 1
x(19,4,3) 0
x(20,4,3) 0
x(21,4,3) 0
x(22,4,3) 0
x(23,4,3) 0
x(24,4,3) 0
x(25,4,3) 0
x(26,4,3) 0
x(27,4,3) 0
x(28,4,3) 0
x(29,4,3) 0
x(30,4,3) 0
x(31,4,3) 0
x(32,4,3) 0
x(33,4,3) 0
x(34,4,3) 0
x(35,4,3) 0
x(36,4,3) 0
x(37,4,3) 0
x(38,4,3) 0
x(39,4,3) 0
x(40,4,3) 0
x(41,4,3) 0
x(42,4,3) 0
x(43,4,3) 0
x(44,4,3) 0
x(45,4,3) 0
x(46,4,3) 0
x(47,4,3) 0
x(48,4,3) 0
x(49,4,3) 0
x(50,4,3) 0
x(51,4,3) 0
x(52,4,3) 0
x(53,4,3) 0
x(54,4,3) 0
x(55,4,3) 0
x(56,4,3) 0
x(57,4,3) 0
x(58,4,3) 0
x(59,4,3) 0
x(60,4,3) 0
x(1,4,4) 1
x(2,4,4) 0
x(3,4,4) 0
x(4,4,4) 0
x(5,4,4) 0
x(6,4,4) 0
x(7,4,4) 0
x(8,4,4) 0
x(9,4,4) 0
x(10,4,4) 0
x(11,4,4) 0
x(12,4,4) 0
x(13,4,4) 0
x(15,4,4) 0
x(16,4,4) 0
x(17,4,4) 0
x(18,4,4) 0
x(19,4,4) 0
x(20,4,4) 0
x(21,4,4) 0
x(22,4,4) 0
x(23,4,4) 0
x(24,4,4) 0
x(25,4,4) 0
x(26,4,4) 0
x(27,4,4) 0
x(28,4,4) 0
x(29,4,4) 0
x(30,4,4) 0
x(31,4,4) 0
x(32,4,4) 0
x(33,4,4) 0
x(34,4,4) 0
x(35,4,4) 0
x(36,4,4) 0
x(37,4,4) 0
x(38,4,4) 0
x(39,4,4) 0
x(40,4,4) 0
x(41,4,4) 0
x(42,4,4) 0
x(43,4,4) 0
x(44,4,4) 0
x(45,4,4) 0
x(46,4,4) 0
x(47,4,4) 0
x(48,4,4) 0
x(49,4,4) 0
x(50,4,4) 0
x(51,4,4) 0
x(52,4,4) 0
x(53,4,4) 0
x(54,4,4) 0
x(55,4,4) 0
x(56,4,4) 0
x(57,4,4) 0
x(58,4,4) 0
x(59,4,4) 0
x(60,4,4) 0
x(1,4,5) 0
x(2,4,5) 0
x(3,4,5) 0
x(4,4,5) 0
x(5,4,5) 0
x(6,4,5) 0
x(7,4,5) 0
x(8,4,5) 0
x(9,4,5) 0
x(10,4,5) 0
x(11,4,5) 0
x(12,4,5) 0
x(13,4,5) 0
x(15,4,5) 0
x(16,4,5) 0
x(17,4,5) 0
x(18,4,5) 0
x(19,4,5) 0
x(20,4,5) 0
x(21,4,5) 0
x(22,4,5) 0
x(23,4,5) 0
x(24,4,5) 0
x(25,4,5) 0
x(26,4,5) 0
x(27,4,5) 0
x(28,4,5) 0
x(29,4,5) 0
x(30,4,5) 0
x(31,4,5) 0
x(32,4,5) 0
x(33,4,5) 0
x(34,4,5) 0
x(35,4,5) 0
x(36,4,5) 0
x(37,4,5) 0
x(38,4,5) 0
x(39,4,5) 0
x(40,4,5) 0
x(41,4,5) 0
x(42,4,5) 0
x(43,4,5) 0
x(44,4,5) 0
x(45,4,5) 0
x(46,4,5) 0
x(47,4,5) 0
x(48,4,5) 0
x(49,4,5) 0
x(50,4,5) 1
x(51,4,5) 0
x(52,4,5) 0
x(53,4,5) 0
x(54,4,5) 0
x(55,4,5) 0
x(56,4,5) 0
x(57,4,5) 0
x(58,4,5) 0
x(59,4,5) 0
x(60,4,5) 0
x(1,5,1) 0
x(2,5,1) 0
x(3,5,1) 0
x(4,5,1) 0
x(5,5,1) 0
x(6,5,1) 0
x(7,5,1) 0
x(8,5,1) 0
x(9,5,1) 0
x(10,5,1) 0
x(11,5,1) 0
x(12,5,1) 0
x(13,5,1) 0
x(15,5,1) 0
x(16,5,1) 0
x(17,5,1) 0
x(18,5,1) 0
x(19,5,1) 0
x(20,5,1) 0
x(21,5,1) 0
x(22,5,1) 0
x(23,5,1) 0
x(24,5,1) 0
x(25,5,1) 0
x(26,5,1) 0
x(27,5,1) 0
x(28,5,1) 0
x(29,5,1) 0
x(30,5,1) 0
x(31,5,1) 0
x(32,5,1) 0
x(33,5,1) 0
x(34,5,1) 0
x(35,5,1) 0
x(36,5,1) 1
x(37,5,1) 0
x(38,5,1) 0
x(39,5,1) 0
x(40,5,1) 0
x(41,5,1) 0
x(42,5,1) 0
x(43,5,1) 0
x(44,5,1) 0
x(45,5,1) 0
x(46,5,1) 0
x(47,5,1) 0
x(48,5,1) 0
x(49,5,1) 0
x(50,5,1) 0
x(51,5,1) 0
x(52,5,1) 0
x(53,5,1) 0
x(54,5,1) 0
x(55,5,1) 0
x(56,5,1) 0
x(57,5,1) 0
x(58,5,1) 0
x(59,5,1) 0
x(60,5,1) 0
x(1,5,2) 0
x(2,5,2) 0
x(3,5,2) 0
x(4,5,2) 0
x(5,5,2) 0
x(6,5,2) 0
x(7,5,2) 0
x(8,5,2) 0
x(9,5,2) 0
x(10,5,2) 0
x(11,5,2) 0
x(12,5,2) 0
x(13,5,2) 0
x(15,5,2) 0
x(16,5,2) 0
x(17,5,2) 0
x(18,5,2) 0
x(19,5,2) 0
x(20,5,2) 0
x(21,5,2) 0
x(22,5,2) 0
x(23,5,2) 0
x(24,5,2) 0
x(25,5,2) 0
x(26,5,2) 0
x(27,5,2) 0
x(28,5,2) 0
x(29,5,2) 0
x(30,5,2) 0
x(31,5,2) 0
x(32,5,2) 0
x(33,5,2) 1
x(34,5,2) 0
x(35,5,2) 0
x(36,5,2) 0
x(37,5,2) 0
x(38,5,2) 0
x(39,5,2) 0
x(40,5,2) 0
x(41,5,2) 0
x(42,5,2) 0
x(43,5,2) 0
x(44,5,2) 0
x(45,5,2) 0
x(46,5,2) 0
x(47,5,2) 0
x(48,5,2) 0
x(49,5,2) 0
x(50,5,2) 0
x(51,5,2) 0
x(52,5,2) 0
x(53,5,2) 0
x(54,5,2) 0
x(55,5,2) 0
x(56,5,2) 0
x(57,5,2) 0
x(58,5,2) 0
x(59,5,2) 0
x(60,5,2) 0
x(1,5,3) 0
x(2,5,3) 0
x(3,5,3) 0
x(4,5,3) 0
x(5,5,3) 0
x(6,5,3) 0
x(7,5,3) 0
x(8,5,3) 0
x(9,5,3) 0
x(10,5,3) 0
x(11,5,3) 0
x(12,5,3) 0
x(13,5,3) 0
x(15,5,3) 0
x(16,5,3) 0
x(17,5,3) 0
x(18,5,3) 0
x(19,5,3) 0
x(20,5,3) 0
x(21,5,3) 0
x(22,5,3) 0
x(23,5,3) 0
x(24,5,3) 0
x(25,5,3) 0
x(26,5,3) 0
x(27,5,3) 0
x(28,5,3) 0
x(29,5,3) 0
x(30,5,3) 0
x(31,5,3) 0
x(32,5,3) 0
x(33,5,3) 0
x(34,5,3) 0
x(35,5,3) 0
x(36,5,3) 0
x(37,5,3) 0
x(38,5,3) 0
x(39,5,3) 0
x(40,5,3) 0
x(41,5,3) 0
x(42,5,3) 0
x(43,5,3) 0
x(44,5,3) 0
x(45,5,3) 0
x(46,5,3) 0
x(47,5,3) 0
x(48,5,3) 0
x(49,5,3) 0
x(50,5,3) 0
x(51,5,3) 0
x(52,5,3) 0
x(53,5,3) 0
x(54,5,3) 0
x(55,5,3) 0
x(56,5,3) 0
x(57,5,3) 0
x(58,5,3) 0
x(59,5,3) 0
x(60,5,3) 0
x(1,5,4) 0
x(2,5,4) 0
x(3,5,4) 0
x(4,5,4) 0
x(5,5,4) 1
x(6,5,4) 0
x(7,5,4) 0
x(8,5,4) 0
x(9,5,4) 0
x(10,5,4) 0
x(11,5,4) 0
x(12,5,4) 0
x(13,5,4) 0
x(15,5,4) 0
x(16,5,4) 1
x(17,5,4) 0
x(18,5,4) 0
x(19,5,4) 0
x(20,5,4) 0
x(21,5,4) 0
x(22,5,4) 0
x(23,5,4) 0
x(24,5,4) 0
x(25,5,4) 0
x(26,5,4) 0
x(27,5,4) 0
x(28,5,4) 0
x(29,5,4) 0
x(30,5,4) 0
x(31,5,4) 0
x(32,5,4) 0
x(33,5,4) 0
x(34,5,4) 0
x(35,5,4) 0
x(36,5,4) 0
x(37,5,4) 0
x(38,5,4) 0
x(39,5,4) 0
x(40,5,4) 0
x(41,5,4) 0
x(42,5,4) 0
x(43,5,4) 0
x(44,5,4) 0
x(45,5,4) 0
x(46,5,4) 0
x(47,5,4) 0
x(48,5,4) 0
x(49,5,4) 0
x(50,5,4) 0
x(51,5,4) 0
x(52,5,4) 0
x(53,5,4) 0
x(54,5,4) 0
x(55,5,4) 0
x(56,5,4) 0
x(57,5,4) 0
x(58,5,4) 0
x(59,5,4) 0
x(60,5,4) 1
x(1,5,5) 0
x(2,5,5) 0
x(3,5,5) 0
x(4,5,5) 0
x(5,5,5) 0
x(6,5,5) 0
x(7,5,5) 0
x(8,5,5) 0
x(9,5,5) 0
x(10,5,5) 0
x(11,5,5) 0
x(12,5,5) 0
x(13,5,5) 0
x(15,5,5) 0
x(16,5,5) 0
x(17,5,5) 1
x(18,5,5) 0
x(19,5,5) 0
x(20,5,5) 0
x(21,5,5) 0
x(22,5,5) 0
x(23,5,5) 0
x(24,5,5) 0
x(25,5,5) 0
x(26,5,5) 0
x(27,5,5) 0
x(28,5,5) 0
x(29,5,5) 0
x(30,5,5) 0
x(31,5,5) 0
x(32,5,5) 0
x(33,5,5) 0
x(34,5,5) 0
x(35,5,5) 0
x(36,5,5) 0
x(37,5,5) 0
x(38,5,5) 0
x(39,5,5) 0
x(40,5,5) 0
x(41,5,5) 0
x(42,5,5) 0
x(43,5,5) 0
x(44,5,5) 0
x(45,5,5) 0
x(46,5,5) 0
x(47,5,5) 0
x(48,5,5) 0
x(49,5,5) 0
x(50,5,5) 0
x(51,5,5) 0
x(52,5,5) 0
x(53,5,5) 0
x(54,5,5) 0
x(55,5,5) 0
x(56,5,5) 0
x(57,5,5) 0
x(58,5,5) 0
x(59,5,5) 0
x(60,5,5) 0
x(1,6,1) 0
x(2,6,1) 0
x(3,6,1) 0
x(4,6,1) 0
x(5,6,1) 0
x(6,6,1) 0
x(7,6,1) 0
x(8,6,1) 0
x(9,6,1) 0
x(10,6,1) 0
x(11,6,1) 0
x(12,6,1) 0
x(13,6,1) 0
x(15,6,1) 0
x(16,6,1) 0
x(17,6,1) 0
x(18,6,1) 0
x(19,6,1) 0
x(20,6,1) 0
x(21,6,1) 0
x(22,6,1) 0
x(23,6,1) 0
x(24,6,1) 0
x(25,6,1) 0
x(26,6,1) 0
x(27,6,1) 0
x(28,6,1) 0
x(29,6,1) 0
x(30,6,1) 0
x(31,6,1) 0
x(32,6,1) 0
x(33,6,1) 0
x(34,6,1) 0
x(35,6,1) 0
x(36,6,1) 0
x(37,6,1) 0
x(38,6,1) 0
x(39,6,1) 0
x(40,6,1) 0
x(41,6,1) 0
x(42,6,1) 0
x(43,6,1) 1
x(44,6,1) 0
x(45,6,1) 0
x(46,6,1) 0
x(47,6,1) 1
x(48,6,1) 0
x(49,6,1) 0
x(50,6,1) 0
x(51,6,1) 0
x(52,6,1) 0
x(53,6,1) 0
x(54,6,1) 0
x(55,6,1) 0
x(56,6,1) 0
x(57,6,1) 0
x(58,6,1) 0
x(59,6,1) 0
x(60,6,1) 0
x(1,6,2) 0
x(2,6,2) 0
x(3,6,2) 0
x(4,6,2) 0
x(5,6,2) 0
x(6,6,2) 0
x(7,6,2) 0
x(8,6,2) 0
x(9,6,2) 0
x(10,6,2) 0
x(11,6,2) 0
x(12,6,2) 0
x(13,6,2) 0
x(15,6,2) 0
x(16,6,2) 0
x(17,6,2) 0
x(18,6,2) 0
x(19,6,2) 0
x(20,6,2) 0
x(21,6,2) 0
x(22,6,2) 0
x(23,6,2) 0
x(24,6,2) 0
x(25,6,2) 0
x(26,6,2) 0
x(27,6,2) 0
x(28,6,2) 0
x(29,6,2) 0
x(30,6,2) 0
x(31,6,2) 0
x(32,6,2) 0
x(33,6,2) 0
x(34,6,2) 0
x(35,6,2) 0
x(36,6,2) 0
x(37,6,2) 0
x(38,6,2) 1
x(39,6,2) 0
x(40,6,2) 1
x(41,6,2) 0
x(42,6,2) 0
x(43,6,2) 0
x(44,6,2) 0
x(45,6,2) 0
x(46,6,2) 0
x(47,6,2) 0
x(48,6,2) 0
x(49,6,2) 0
x(50,6,2) 0
x(51,6,2) 0
x(52,6,2) 0
x(53,6,2) 0
x(54,6,2) 0
x(55,6,2) 0
x(56,6,2) 0
x(57,6,2) 0
x(58,6,2) 0
x(59,6,2) 0
x(60,6,2) 0
x(1,6,3) 0
x(2,6,3) 0
x(3,6,3) 0
x(4,6,3) 1
x(5,6,3) 0
x(6,6,3) 0
x(7,6,3) 0
x(8,6,3) 0
x(9,6,3) 1
x(10,6,3) 0
x(11,6,3) 0
x(12,6,3) 0
x(13,6,3) 0
x(15,6,3) 0
x(16,6,3) 0
x(17,6,3) 0
x(18,6,3) 0
x(19,6,3) 0
x(20,6,3) 0
x(21,6,3) 0
x(22,6,3) 0
x(23,6,3) 0
x(24,6,3) 0
x(25,6,3) 0
x(26,6,3) 0
x(27,6,3) 0
x(28,6,3) 0
x(29,6,3) 0
x(30,6,3) 0
x(31,6,3) 0
x(32,6,3) 0
x(33,6,3) 0
x(34,6,3) 0
x(35,6,3) 0
x(36,6,3) 0
x(37,6,3) 1
x(38,6,3) 0
x(39,6,3) 0
x(40,6,3) 0
x(41,6,3) 0
x(42,6,3) 0
x(43,6,3) 0
x(44,6,3) 0
x(45,6,3) 0
x(46,6,3) 0
x(47,6,3) 0
x(48,6,3) 0
x(49,6,3) 0
x(50,6,3) 0
x(51,6,3) 0
x(52,6,3) 0
x(53,6,3) 1
x(54,6,3) 0
x(55,6,3) 0
x(56,6,3) 0
x(57,6,3) 0
x(58,6,3) 0
x(59,6,3) 0
x(60,6,3) 0
x(1,6,4) 0
x(2,6,4) 0
x(3,6,4) 0
x(4,6,4) 0
x(5,6,4) 0
x(6,6,4) 0
x(7,6,4) 0
x(8,6,4) 0
x(9,6,4) 0
x(10,6,4) 0
x(11,6,4) 0
x(12,6,4) 0
x(13,6,4) 0
x(15,6,4) 0
x(16,6,4) 0
x(17,6,4) 0
x(18,6,4) 0
x(19,6,4) 0
x(20,6,4) 0
x(21,6,4) 0
x(22,6,4) 0
x(23,6,4) 0
x(24,6,4) 0
x(25,6,4) 0
x(26,6,4) 0
x(27,6,4) 0
x(28,6,4) 0
x(29,6,4) 0
x(30,6,4) 0
x(31,6,4) 0
x(32,6,4) 0
x(33,6,4) 0
x(34,6,4) 0
x(35,6,4) 0
x(36,6,4) 0
x(37,6,4) 0
x(38,6,4) 0
x(39,6,4) 0
x(40,6,4) 0
x(41,6,4) 0
x(42,6,4) 0
x(43,6,4) 0
x(44,6,4) 0
x(45,6,4) 0
x(46,6,4) 0
x(47,6,4) 0
x(48,6,4) 0
x(49,6,4) 0
x(50,6,4) 0
x(51,6,4) 0
x(52,6,4) 1
x(53,6,4) 0
x(54,6,4) 0
x(55,6,4) 0
x(56,6,4) 0
x(57,6,4) 0
x(58,6,4) 0
x(59,6,4) 0
x(60,6,4) 0
x(1,6,5) 0
x(2,6,5) 0
x(3,6,5) 0
x(4,6,5) 0
x(5,6,5) 0
x(6,6,5) 0
x(7,6,5) 0
x(8,6,5) 0
x(9,6,5) 0
x(10,6,5) 0
x(11,6,5) 0
x(12,6,5) 0
x(13,6,5) 1
x(15,6,5) 0
x(16,6,5) 0
x(17,6,5) 0
x(18,6,5) 0
x(19,6,5) 0
x(20,6,5) 0
x(21,6,5) 0
x(22,6,5) 0
x(23,6,5) 0
x(24,6,5) 0
x(25,6,5) 0
x(26,6,5) 0
x(27,6,5) 0
x(28,6,5) 0
x(29,6,5) 0
x(30,6,5) 0
x(31,6,5) 0
x(32,6,5) 0
x(33,6,5) 0
x(34,6,5) 0
x(35,6,5) 0
x(36,6,5) 0
x(37,6,5) 0
x(38,6,5) 0
x(39,6,5) 0
x(40,6,5) 0
x(41,6,5) 0
x(42,6,5) 0
x(43,6,5) 0
x(44,6,5) 0
x(45,6,5) 0
x(46,6,5) 0
x(47,6,5) 0
x(48,6,5) 0
x(49,6,5) 0
x(50,6,5) 0
x(51,6,5) 0
x(52,6,5) 0
x(53,6,5) 0
x(54,6,5) 0
x(55,6,5) 0
x(56,6,5) 0
x(57,6,5) 0
x(58,6,5) 0
x(59,6,5) 0
x(60,6,5) 0
x(1,7,1) 0
x(2,7,1) 0
x(3,7,1) 0
x(4,7,1) 0
x(5,7,1) 0
x(6,7,1) 0
x(7,7,1) 0
x(8,7,1) 0
x(9,7,1) 0
x(10,7,1) 0
x(11,7,1) 0
x(12,7,1) 0
x(13,7,1) 0
x(15,7,1) 0
x(16,7,1) 0
x(17,7,1) 0
x(18,7,1) 0
x(19,7,1) 0
x(20,7,1) 0
x(21,7,1) 0
x(22,7,1) 0
x(23,7,1) 0
x(24,7,1) 0
x(25,7,1) 0
x(26,7,1) 0
x(27,7,1) 1
x(28,7,1) 0
x(29,7,1) 0
x(30,7,1) 0
x(31,7,1) 0
x(32,7,1) 0
x(33,7,1) 0
x(34,7,1) 0
x(35,7,1) 0
x(36,7,1) 0
x(37,7,1) 0
x(38,7,1) 0
x(39,7,1) 0
x(40,7,1) 0
x(41,7,1) 0
x(42,7,1) 0
x(43,7,1) 0
x(44,7,1) 0
x(45,7,1) 0
x(46,7,1) 0
x(47,7,1) 0
x(48,7,1) 0
x(49,7,1) 0
x(50,7,1) 0
x(51,7,1) 0
x(52,7,1) 0
x(53,7,1) 0
x(54,7,1) 0
x(55,7,1) 0
x(56,7,1) 0
x(57,7,1) 0
x(58,7,1) 0
x(59,7,1) 0
x(60,7,1) 0
x(1,7,2) 0
x(2,7,2) 0
x(3,7,2) 0
x(4,7,2) 0
x(5,7,2) 0
x(6,7,2) 0
x(7,7,2) 0
x(8,7,2) 0
x(9,7,2) 0
x(10,7,2) 0
x(11,7,2) 0
x(12,7,2) 0
x(13,7,2) 0
x(15,7,2) 0
x(16,7,2) 0
x(17,7,2) 0
x(18,7,2) 0
x(19,7,2) 0
x(20,7,2) 0
x(21,7,2) 0
x(22,7,2) 0
x(23,7,2) 0
x(24,7,2) 0
x(25,7,2) 0
x(26,7,2) 0
x(27,7,2) 0
x(28,7,2) 0
x(29,7,2) 0
x(30,7,2) 0
x(31,7,2) 0
x(32,7,2) 0
x(33,7,2) 0
x(34,7,2) 0
x(35,7,2) 0
x(36,7,2) 0
x(37,7,2) 0
x(38,7,2) 0
x(39,7,2) 0
x(40,7,2) 0
x(41,7,2) 0
x(42,7,2) 0
x(43,7,2) 0
x(44,7,2) 0
x(45,7,2) 0
x(46,7,2) 0
x(47,7,2) 0
x(48,7,2) 0
x(49,7,2) 0
x(50,7,2) 0
x(51,7,2) 0
x(52,7,2) 0
x(53,7,2) 0
x(54,7,2) 0
x(55,7,2) 0
x(56,7,2) 0
x(57,7,2) 0
x(58,7,2) 0
x(59,7,2) 0
x(60,7,2) 0
x(1,7,3) 0
x(2,7,3) 0
x(3,7,3) 0
x(4,7,3) 0
x(5,7,3) 0
x(6,7,3) 0
x(7,7,3) 1
x(8,7,3) 0
x(9,7,3) 0
x(10,7,3) 0
x(11,7,3) 0
x(12,7,3) 0
x(13,7,3) 0
x(15,7,3) 0
x(16,7,3) 0
x(17,7,3) 0
x(18,7,3) 0
x(19,7,3) 0
x(20,7,3) 0
x(21,7,3) 0
x(22,7,3) 0
x(23,7,3) 0
x(24,7,3) 0
x(25,7,3) 0
x(26,7,3) 0
x(27,7,3) 0
x(28,7,3) 0
x(29,7,3) 1
x(30,7,3) 0
x(31,7,3) 0
x(32,7,3) 0
x(33,7,3) 0
x(34,7,3) 1
x(35,7,3) 0
x(36,7,3) 0
x(37,7,3) 0
x(38,7,3) 0
x(39,7,3) 0
x(40,7,3) 0
x(41,7,3) 0
x(42,7,3) 0
x(43,7,3) 0
x(44,7,3) 0
x(45,7,3) 0
x(46,7,3) 0
x(47,7,3) 0
x(48,7,3) 0
x(49,7,3) 0
x(50,7,3) 0
x(51,7,3) 0
x(52,7,3) 0
x(53,7,3) 0
x(54,7,3) 0
x(55,7,3) 0
x(56,7,3) 0
x(57,7,3) 0
x(58,7,3) 0
x(59,7,3) 0
x(60,7,3) 0
x(1,7,4) 0
x(2,7,4) 0
x(3,7,4) 0
x(4,7,4) 0
x(5,7,4) 0
x(6,7,4) 0
x(7,7,4) 0
x(8,7,4) 0
x(9,7,4) 0
x(10,7,4) 0
x(11,7,4) 0
x(12,7,4) 0
x(13,7,4) 0
x(15,7,4) 0
x(16,7,4) 0
x(17,7,4) 0
x(18,7,4) 0
x(19,7,4) 0
x(20,7,4) 0
x(21,7,4) 0
x(22,7,4) 0
x(23,7,4) 0
x(24,7,4) 0
x(25,7,4) 0
x(26,7,4) 0
x(27,7,4) 0
x(28,7,4) 0
x(29,7,4) 0
x(30,7,4) 0
x(31,7,4) 0
x(32,7,4) 0
x(33,7,4) 0
x(34,7,4) 0
x(35,7,4) 0
x(36,7,4) 0
x(37,7,4) 0
x(38,7,4) 0
x(39,7,4) 0
x(40,7,4) 0
x(41,7,4) 0
x(42,7,4) 0
x(43,7,4) 0
x(44,7,4) 0
x(45,7,4) 0
x(46,7,4) 0
x(47,7,4) 0
x(48,7,4) 0
x(49,7,4) 0
x(50,7,4) 0
x(51,7,4) 0
x(52,7,4) 0
x(53,7,4) 0
x(54,7,4) 0
x(55,7,4) 0
x(56,7,4) 0
x(57,7,4) 0
x(58,7,4) 0
x(59,7,4) 0
x(60,7,4) 0
x(1,7,5) 0
x(2,7,5) 0
x(3,7,5) 0
x(4,7,5) 0
x(5,7,5) 0
x(6,7,5) 0
x(7,7,5) 0
x(8,7,5) 0
x(9,7,5) 0
x(10,7,5) 0
x(11,7,5) 0
x(12,7,5) 0
x(13,7,5) 0
x(15,7,5) 0
x(16,7,5) 0
x(17,7,5) 0
x(18,7,5) 0
x(19,7,5) 0
x(20,7,5) 0
x(21,7,5) 0
x(22,7,5) 0
x(23,7,5) 0
x(24,7,5) 0
x(25,7,5) 0
x(26,7,5) 0
x(27,7,5) 0
x(28,7,5) 0
x(29,7,5) 0
x(30,7,5) 0
x(31,7,5) 1
x(32,7,5) 1
x(33,7,5) 0
x(34,7,5) 0
x(35,7,5) 0
x(36,7,5) 0
x(37,7,5) 0
x(38,7,5) 0
x(39,7,5) 0
x(40,7,5) 0
x(41,7,5) 0
x(42,7,5) 0
x(43,7,5) 0
x(44,7,5) 0
x(45,7,5) 0
x(46,7,5) 0
x(47,7,5) 0
x(48,7,5) 0
x(49,7,5) 0
x(50,7,5) 0
x(51,7,5) 0
x(52,7,5) 0
x(53,7,5) 0
x(54,7,5) 0
x(55,7,5) 0
x(56,7,5) 0
x(57,7,5) 0
x(58,7,5) 0
x(59,7,5) 0
x(60,7,5) 0
x(1,8,1) 0
x(2,8,1) 0
x(3,8,1) 0
x(4,8,1) 0
x(5,8,1) 0
x(6,8,1) 0
x(7,8,1) 0
x(8,8,1) 0
x(9,8,1) 0
x(10,8,1) 0
x(11,8,1) 0
x(12,8,1) 0
x(13,8,1) 0
x(15,8,1) 0
x(16,8,1) 0
x(17,8,1) 0
x(18,8,1) 0
x(19,8,1) 0
x(20,8,1) 0
x(21,8,1) 0
x(22,8,1) 0
x(23,8,1) 0
x(24,8,1) 0
x(25,8,1) 0
x(26,8,1) 0
x(27,8,1) 0
x(28,8,1) 0
x(29,8,1) 0
x(30,8,1) 0
x(31,8,1) 0
x(32,8,1) 0
x(33,8,1) 0
x(34,8,1) 0
x(35,8,1) 0
x(36,8,1) 0
x(37,8,1) 0
x(38,8,1) 0
x(39,8,1) 0
x(40,8,1) 0
x(41,8,1) 0
x(42,8,1) 0
x(43,8,1) 0
x(44,8,1) 0
x(45,8,1) 0
x(46,8,1) 0
x(47,8,1) 0
x(48,8,1) 0
x(49,8,1) 0
x(50,8,1) 0
x(51,8,1) 0
x(52,8,1) 0
x(53,8,1) 0
x(54,8,1) 0
x(55,8,1) 0
x(56,8,1) 0
x(57,8,1) 0
x(58,8,1) 0
x(59,8,1) 0
x(60,8,1) 0
x(1,8,2) 0
x(2,8,2) 0
x(3,8,2) 0
x(4,8,2) 0
x(5,8,2) 0
x(6,8,2) 0
x(7,8,2) 0
x(8,8,2) 0
x(9,8,2) 0
x(10,8,2) 0
x(11,8,2) 0
x(12,8,2) 0
x(13,8,2) 0
x(15,8,2) 0
x(16,8,2) 0
x(17,8,2) 0
x(18,8,2) 0
x(19,8,2) 0
x(20,8,2) 0
x(21,8,2) 0
x(22,8,2) 0
x(23,8,2) 0
x(24,8,2) 0
x(25,8,2) 0
x(26,8,2) 0
x(27,8,2) 0
x(28,8,2) 0
x(29,8,2) 0
x(30,8,2) 0
x(31,8,2) 0
x(32,8,2) 0
x(33,8,2) 0
x(34,8,2) 0
x(35,8,2) 0
x(36,8,2) 0
x(37,8,2) 0
x(38,8,2) 0
x(39,8,2) 0
x(40,8,2) 0
x(41,8,2) 0
x(42,8,2) 0
x(43,8,2) 0
x(44,8,2) 0
x(45,8,2) 0
x(46,8,2) 0
x(47,8,2) 0
x(48,8,2) 0
x(49,8,2) 0
x(50,8,2) 0
x(51,8,2) 0
x(52,8,2) 0
x(53,8,2) 0
x(54,8,2) 0
x(55,8,2) 0
x(56,8,2) 0
x(57,8,2) 0
x(58,8,2) 0
x(59,8,2) 0
x(60,8,2) 0
x(1,8,3) 0
x(2,8,3) 0
x(3,8,3) 0
x(4,8,3) 0
x(5,8,3) 0
x(6,8,3) 0
x(7,8,3) 0
x(8,8,3) 0
x(9,8,3) 0
x(10,8,3) 0
x(11,8,3) 0
x(12,8,3) 0
x(13,8,3) 0
x(15,8,3) 0
x(16,8,3) 0
x(17,8,3) 0
x(18,8,3) 0
x(19,8,3) 0
x(20,8,3) 0
x(21,8,3) 0
x(22,8,3) 0
x(23,8,3) 0
x(24,8,3) 0
x(25,8,3) 0
x(26,8,3) 0
x(27,8,3) 0
x(28,8,3) 0
x(29,8,3) 0
x(30,8,3) 0
x(31,8,3) 0
x(32,8,3) 0
x(33,8,3) 0
x(34,8,3) 0
x(35,8,3) 0
x(36,8,3) 0
x(37,8,3) 0
x(38,8,3) 0
x(39,8,3) 0
x(40,8,3) 0
x(41,8,3) 0
x(42,8,3) 0
x(43,8,3) 0
x(44,8,3) 0
x(45,8,3) 0
x(46,8,3) 0
x(47,8,3) 0
x(48,8,3) 0
x(49,8,3) 0
x(50,8,3) 0
x(51,8,3) 0
x(52,8,3) 0
x(53,8,3) 0
x(54,8,3) 0
x(55,8,3) 0
x(56,8,3) 0
x(57,8,3) 0
x(58,8,3) 0
x(59,8,3) 0
x(60,8,3) 0
x(1,8,4) 0
x(2,8,4) 0
x(3,8,4) 0
x(4,8,4) 0
x(5,8,4) 0
x(6,8,4) 0
x(7,8,4) 0
x(8,8,4) 0
x(9,8,4) 0
x(10,8,4) 0
x(11,8,4) 0
x(12,8,4) 0
x(13,8,4) 0
x(15,8,4) 0
x(16,8,4) 0
x(17,8,4) 0
x(18,8,4) 0
x(19,8,4) 0
x(20,8,4) 0
x(21,8,4) 0
x(22,8,4) 0
x(23,8,4) 0
x(24,8,4) 0
x(25,8,4) 0
x(26,8,4) 0
x(27,8,4) 0
x(28,8,4) 0
x(29,8,4) 0
x(30,8,4) 0
x(31,8,4) 0
x(32,8,4) 0
x(33,8,4) 0
x(34,8,4) 0
x(35,8,4) 0
x(36,8,4) 0
x(37,8,4) 0
x(38,8,4) 0
x(39,8,4) 0
x(40,8,4) 0
x(41,8,4) 0
x(42,8,4) 0
x(43,8,4) 0
x(44,8,4) 0
x(45,8,4) 0
x(46,8,4) 0
x(47,8,4) 0
x(48,8,4) 0
x(49,8,4) 0
x(50,8,4) 0
x(51,8,4) 0
x(52,8,4) 0
x(53,8,4) 0
x(54,8,4) 0
x(55,8,4) 0
x(56,8,4) 0
x(57,8,4) 0
x(58,8,4) 0
x(59,8,4) 0
x(60,8,4) 0
x(1,8,5) 0
x(2,8,5) 0
x(3,8,5) 0
x(4,8,5) 0
x(5,8,5) 0
x(6,8,5) 0
x(7,8,5) 0
x(8,8,5) 0
x(9,8,5) 0
x(10,8,5) 0
x(11,8,5) 0
x(12,8,5) 0
x(13,8,5) 0
x(15,8,5) 0
x(16,8,5) 0
x(17,8,5) 0
x(18,8,5) 0
x(19,8,5) 0
x(20,8,5) 0
x(21,8,5) 0
x(22,8,5) 0
x(23,8,5) 0
x(24,8,5) 0
x(25,8,5) 0
x(26,8,5) 0
x(27,8,5) 0
x(28,8,5) 0
x(29,8,5) 0
x(30,8,5) 0
x(31,8,5) 0
x(32,8,5) 0
x(33,8,5) 0
x(34,8,5) 0
x(35,8,5) 0
x(36,8,5) 0
x(37,8,5) 0
x(38,8,5) 0
x(39,8,5) 0
x(40,8,5) 0
x(41,8,5) 0
x(42,8,5) 0
x(43,8,5) 0
x(44,8,5) 0
x(45,8,5) 0
x(46,8,5) 0
x(47,8,5) 0
x(48,8,5) 0
x(49,8,5) 0
x(50,8,5) 0
x(51,8,5) 0
x(52,8,5) 0
x(53,8,5) 0
x(54,8,5) 0
x(55,8,5) 0
x(56,8,5) 0
x(57,8,5) 0
x(58,8,5) 0
x(59,8,5) 0
x(60,8,5) 0
x(14,1,1) 1
x(14,1,2) 0
x(14,1,3) 0
x(14,1,4) 0
x(14,1,5) 0
x(14,2,1) 0
x(14,2,2) 0
x(14,2,3) 0
x(14,2,4) 0
x(14,2,5) 0
x(14,3,1) 0
x(14,3,2) 0
x(14,3,3) 0
x(14,3,4) 0
x(14,3,5) 0
x(14,4,1) 0
x(14,4,2) 0
x(14,4,3) 0
x(14,4,4) 0
x(14,4,5) 0
x(14,5,1) 0
x(14,5,2) 0
x(14,5,3) 0
x(14,5,4) 0
x(14,5,5) 0
x(14,6,1) 0
x(14,6,2) 0
x(14,6,3) 0
x(14,6,4) 0
x(14,6,5) 0
x(14,7,1) 0
x(14,7,2) 0
x(14,7,3) 0
x(14,7,4) 0
x(14,7,5) 0
x(14,8,1) 0
x(14,8,2) 0
x(14,8,3) 0
x(14,8,4) 0
x(14,8,5) 0
